g9 0 1 0 200 20170614 0 4 0 240	# problem lnts50
 249 200 1 0 200	# vars, constraints, objectives, ranges, eqns
 200 0	# nonlinear constraints, objectives
 0 0	# network constraints: nonlinear, linear
 150 0 0	# nonlinear vars in constraints, objectives, both
 0 0 0 1	# linear network variables; functions; arith, flags
 0 0 0 0 0	# discrete variables: binary, integer, nonlinear (b,c,o)
 989 1	# nonzeros in Jacobian, gradients
 0 0	# max name lengths: constraints, variables
 0 0 0 0 0	# common exprs: b,c,o,c1,o1
b
0 -1.5707963267949 1.5707963267949
0 -1.5707963267949 1.5707963267949
0 -1.5707963267949 1.5707963267949
0 -1.5707963267949 1.5707963267949
0 -1.5707963267949 1.5707963267949
0 -1.5707963267949 1.5707963267949
0 -1.5707963267949 1.5707963267949
0 -1.5707963267949 1.5707963267949
0 -1.5707963267949 1.5707963267949
0 -1.5707963267949 1.5707963267949
0 -1.5707963267949 1.5707963267949
0 -1.5707963267949 1.5707963267949
0 -1.5707963267949 1.5707963267949
0 -1.5707963267949 1.5707963267949
0 -1.5707963267949 1.5707963267949
0 -1.5707963267949 1.5707963267949
0 -1.5707963267949 1.5707963267949
0 -1.5707963267949 1.5707963267949
0 -1.5707963267949 1.5707963267949
0 -1.5707963267949 1.5707963267949
0 -1.5707963267949 1.5707963267949
0 -1.5707963267949 1.5707963267949
0 -1.5707963267949 1.5707963267949
0 -1.5707963267949 1.5707963267949
0 -1.5707963267949 1.5707963267949
0 -1.5707963267949 1.5707963267949
0 -1.5707963267949 1.5707963267949
0 -1.5707963267949 1.5707963267949
0 -1.5707963267949 1.5707963267949
0 -1.5707963267949 1.5707963267949
0 -1.5707963267949 1.5707963267949
0 -1.5707963267949 1.5707963267949
0 -1.5707963267949 1.5707963267949
0 -1.5707963267949 1.5707963267949
0 -1.5707963267949 1.5707963267949
0 -1.5707963267949 1.5707963267949
0 -1.5707963267949 1.5707963267949
0 -1.5707963267949 1.5707963267949
0 -1.5707963267949 1.5707963267949
0 -1.5707963267949 1.5707963267949
0 -1.5707963267949 1.5707963267949
0 -1.5707963267949 1.5707963267949
0 -1.5707963267949 1.5707963267949
0 -1.5707963267949 1.5707963267949
0 -1.5707963267949 1.5707963267949
0 -1.5707963267949 1.5707963267949
0 -1.5707963267949 1.5707963267949
0 -1.5707963267949 1.5707963267949
0 -1.5707963267949 1.5707963267949
0 -1.5707963267949 1.5707963267949
0 -1.5707963267949 1.5707963267949
3
3
3
3
3
3
3
3
3
3
3
3
3
3
3
3
3
3
3
3
3
3
3
3
3
3
3
3
3
3
3
3
3
3
3
3
3
3
3
3
3
3
3
3
3
3
3
3
3
3
3
3
3
3
3
3
3
3
3
3
3
3
3
3
3
3
3
3
3
3
3
3
3
3
3
3
3
3
3
3
3
3
3
3
3
3
3
3
3
3
3
3
3
3
3
3
3
3
2 0
3
3
3
3
3
3
3
3
3
3
3
3
3
3
3
3
3
3
3
3
3
3
3
3
3
3
3
3
3
3
3
3
3
3
3
3
3
3
3
3
3
3
3
3
3
3
3
3
3
3
3
3
3
3
3
3
3
3
3
3
3
3
3
3
3
3
3
3
3
3
3
3
3
3
3
3
3
3
3
3
3
3
3
3
3
3
3
3
3
3
3
3
3
3
3
3
3
3
3
x99
51 1.8
52 2.7
53 3.6
54 4.5
55 5.4
56 6.3
57 7.2
58 8.1
59 9
60 9.9
61 10.8
62 11.7
63 12.6
64 13.5
65 14.4
66 15.3
67 16.2
68 17.1
69 18
70 18.9
71 19.8
72 20.7
73 21.6
74 22.5
75 23.4
76 24.3
77 25.2
78 26.1
79 27
80 27.9
81 28.8
82 29.7
83 30.6
84 31.5
85 32.4
86 33.3
87 34.2
88 35.1
89 36
90 36.9
91 37.8
92 38.7
93 39.6
94 40.5
95 41.4
96 42.3
97 43.2
98 44.1
99 45
149 0.02
200 0.2
201 0.3
202 0.4
203 0.5
204 0.6
205 0.7
206 0.8
207 0.9
208 1
209 1.1
210 1.2
211 1.3
212 1.4
213 1.5
214 1.6
215 1.7
216 1.8
217 1.9
218 2
219 2.1
220 2.2
221 2.3
222 2.4
223 2.5
224 2.6
225 2.7
226 2.8
227 2.9
228 3
229 3.1
230 3.2
231 3.3
232 3.4
233 3.5
234 3.6
235 3.7
236 3.8
237 3.9
238 4
239 4.1
240 4.2
241 4.3
242 4.4
243 4.5
244 4.6
245 4.7
246 4.8
247 4.9
248 5
r
4 0
4 0
4 0
4 0
4 0
4 0
4 0
4 0
4 0
4 0
4 0
4 0
4 0
4 0
4 0
4 0
4 0
4 0
4 0
4 0
4 0
4 0
4 0
4 0
4 0
4 0
4 0
4 0
4 0
4 0
4 0
4 0
4 0
4 0
4 0
4 0
4 0
4 0
4 0
4 0
4 0
4 0
4 0
4 0
4 0
4 0
4 0
4 0
4 0
4 0
4 0
4 0
4 0
4 0
4 0
4 0
4 0
4 0
4 0
4 0
4 0
4 0
4 0
4 0
4 0
4 0
4 0
4 0
4 0
4 0
4 0
4 0
4 0
4 0
4 0
4 0
4 0
4 0
4 0
4 0
4 0
4 0
4 0
4 0
4 0
4 0
4 0
4 0
4 0
4 0
4 0
4 0
4 0
4 0
4 0
4 0
4 0
4 0
4 0
4 -5
4 0
4 0
4 0
4 0
4 0
4 0
4 0
4 0
4 0
4 0
4 0
4 0
4 0
4 0
4 0
4 0
4 0
4 0
4 0
4 0
4 0
4 0
4 0
4 0
4 0
4 0
4 0
4 0
4 0
4 0
4 0
4 0
4 0
4 0
4 0
4 0
4 0
4 0
4 0
4 0
4 0
4 0
4 0
4 0
4 0
4 0
4 0
4 0
4 0
4 -45
4 0
4 0
4 0
4 0
4 0
4 0
4 0
4 0
4 0
4 0
4 0
4 0
4 0
4 0
4 0
4 0
4 0
4 0
4 0
4 0
4 0
4 0
4 0
4 0
4 0
4 0
4 0
4 0
4 0
4 0
4 0
4 0
4 0
4 0
4 0
4 0
4 0
4 0
4 0
4 0
4 0
4 0
4 0
4 0
4 0
4 0
4 0
4 0
4 0
4 0
C0
o2
o2
n-0.5
v149
v51
C1
o2
o2
n-0.5
v149
o0
v51
v52
C2
o2
o2
n-0.5
v149
o0
v52
v53
C3
o2
o2
n-0.5
v149
o0
v53
v54
C4
o2
o2
n-0.5
v149
o0
v54
v55
C5
o2
o2
n-0.5
v149
o0
v55
v56
C6
o2
o2
n-0.5
v149
o0
v56
v57
C7
o2
o2
n-0.5
v149
o0
v57
v58
C8
o2
o2
n-0.5
v149
o0
v58
v59
C9
o2
o2
n-0.5
v149
o0
v59
v60
C10
o2
o2
n-0.5
v149
o0
v60
v61
C11
o2
o2
n-0.5
v149
o0
v61
v62
C12
o2
o2
n-0.5
v149
o0
v62
v63
C13
o2
o2
n-0.5
v149
o0
v63
v64
C14
o2
o2
n-0.5
v149
o0
v64
v65
C15
o2
o2
n-0.5
v149
o0
v65
v66
C16
o2
o2
n-0.5
v149
o0
v66
v67
C17
o2
o2
n-0.5
v149
o0
v67
v68
C18
o2
o2
n-0.5
v149
o0
v68
v69
C19
o2
o2
n-0.5
v149
o0
v69
v70
C20
o2
o2
n-0.5
v149
o0
v70
v71
C21
o2
o2
n-0.5
v149
o0
v71
v72
C22
o2
o2
n-0.5
v149
o0
v72
v73
C23
o2
o2
n-0.5
v149
o0
v73
v74
C24
o2
o2
n-0.5
v149
o0
v74
v75
C25
o2
o2
n-0.5
v149
o0
v75
v76
C26
o2
o2
n-0.5
v149
o0
v76
v77
C27
o2
o2
n-0.5
v149
o0
v77
v78
C28
o2
o2
n-0.5
v149
o0
v78
v79
C29
o2
o2
n-0.5
v149
o0
v79
v80
C30
o2
o2
n-0.5
v149
o0
v80
v81
C31
o2
o2
n-0.5
v149
o0
v81
v82
C32
o2
o2
n-0.5
v149
o0
v82
v83
C33
o2
o2
n-0.5
v149
o0
v83
v84
C34
o2
o2
n-0.5
v149
o0
v84
v85
C35
o2
o2
n-0.5
v149
o0
v85
v86
C36
o2
o2
n-0.5
v149
o0
v86
v87
C37
o2
o2
n-0.5
v149
o0
v87
v88
C38
o2
o2
n-0.5
v149
o0
v88
v89
C39
o2
o2
n-0.5
v149
o0
v89
v90
C40
o2
o2
n-0.5
v149
o0
v90
v91
C41
o2
o2
n-0.5
v149
o0
v91
v92
C42
o2
o2
n-0.5
v149
o0
v92
v93
C43
o2
o2
n-0.5
v149
o0
v93
v94
C44
o2
o2
n-0.5
v149
o0
v94
v95
C45
o2
o2
n-0.5
v149
o0
v95
v96
C46
o2
o2
n-0.5
v149
o0
v96
v97
C47
o2
o2
n-0.5
v149
o0
v97
v98
C48
o2
o2
n-0.5
v149
o0
v98
v99
C49
o2
o2
n-0.5
v149
o0
n45
v99
C50
o2
o2
n-0.5
v149
v100
C51
o2
o2
n-0.5
v149
o0
v100
v101
C52
o2
o2
n-0.5
v149
o0
v101
v102
C53
o2
o2
n-0.5
v149
o0
v102
v103
C54
o2
o2
n-0.5
v149
o0
v103
v104
C55
o2
o2
n-0.5
v149
o0
v104
v105
C56
o2
o2
n-0.5
v149
o0
v105
v106
C57
o2
o2
n-0.5
v149
o0
v106
v107
C58
o2
o2
n-0.5
v149
o0
v107
v108
C59
o2
o2
n-0.5
v149
o0
v108
v109
C60
o2
o2
n-0.5
v149
o0
v109
v110
C61
o2
o2
n-0.5
v149
o0
v110
v111
C62
o2
o2
n-0.5
v149
o0
v111
v112
C63
o2
o2
n-0.5
v149
o0
v112
v113
C64
o2
o2
n-0.5
v149
o0
v113
v114
C65
o2
o2
n-0.5
v149
o0
v114
v115
C66
o2
o2
n-0.5
v149
o0
v115
v116
C67
o2
o2
n-0.5
v149
o0
v116
v117
C68
o2
o2
n-0.5
v149
o0
v117
v118
C69
o2
o2
n-0.5
v149
o0
v118
v119
C70
o2
o2
n-0.5
v149
o0
v119
v120
C71
o2
o2
n-0.5
v149
o0
v120
v121
C72
o2
o2
n-0.5
v149
o0
v121
v122
C73
o2
o2
n-0.5
v149
o0
v122
v123
C74
o2
o2
n-0.5
v149
o0
v123
v124
C75
o2
o2
n-0.5
v149
o0
v124
v125
C76
o2
o2
n-0.5
v149
o0
v125
v126
C77
o2
o2
n-0.5
v149
o0
v126
v127
C78
o2
o2
n-0.5
v149
o0
v127
v128
C79
o2
o2
n-0.5
v149
o0
v128
v129
C80
o2
o2
n-0.5
v149
o0
v129
v130
C81
o2
o2
n-0.5
v149
o0
v130
v131
C82
o2
o2
n-0.5
v149
o0
v131
v132
C83
o2
o2
n-0.5
v149
o0
v132
v133
C84
o2
o2
n-0.5
v149
o0
v133
v134
C85
o2
o2
n-0.5
v149
o0
v134
v135
C86
o2
o2
n-0.5
v149
o0
v135
v136
C87
o2
o2
n-0.5
v149
o0
v136
v137
C88
o2
o2
n-0.5
v149
o0
v137
v138
C89
o2
o2
n-0.5
v149
o0
v138
v139
C90
o2
o2
n-0.5
v149
o0
v139
v140
C91
o2
o2
n-0.5
v149
o0
v140
v141
C92
o2
o2
n-0.5
v149
o0
v141
v142
C93
o2
o2
n-0.5
v149
o0
v142
v143
C94
o2
o2
n-0.5
v149
o0
v143
v144
C95
o2
o2
n-0.5
v149
o0
v144
v145
C96
o2
o2
n-0.5
v149
o0
v145
v146
C97
o2
o2
n-0.5
v149
o0
v146
v147
C98
o2
o2
n-0.5
v149
o0
v147
v148
C99
o2
o2
n-0.5
v149
v148
C100
o2
o2
n-0.5
v149
o0
o2
n100
o46
v0
o2
n100
o46
v1
C101
o2
o2
n-0.5
v149
o0
o2
n100
o46
v1
o2
n100
o46
v2
C102
o2
o2
n-0.5
v149
o0
o2
n100
o46
v2
o2
n100
o46
v3
C103
o2
o2
n-0.5
v149
o0
o2
n100
o46
v3
o2
n100
o46
v4
C104
o2
o2
n-0.5
v149
o0
o2
n100
o46
v4
o2
n100
o46
v5
C105
o2
o2
n-0.5
v149
o0
o2
n100
o46
v5
o2
n100
o46
v6
C106
o2
o2
n-0.5
v149
o0
o2
n100
o46
v6
o2
n100
o46
v7
C107
o2
o2
n-0.5
v149
o0
o2
n100
o46
v7
o2
n100
o46
v8
C108
o2
o2
n-0.5
v149
o0
o2
n100
o46
v8
o2
n100
o46
v9
C109
o2
o2
n-0.5
v149
o0
o2
n100
o46
v9
o2
n100
o46
v10
C110
o2
o2
n-0.5
v149
o0
o2
n100
o46
v10
o2
n100
o46
v11
C111
o2
o2
n-0.5
v149
o0
o2
n100
o46
v11
o2
n100
o46
v12
C112
o2
o2
n-0.5
v149
o0
o2
n100
o46
v12
o2
n100
o46
v13
C113
o2
o2
n-0.5
v149
o0
o2
n100
o46
v13
o2
n100
o46
v14
C114
o2
o2
n-0.5
v149
o0
o2
n100
o46
v14
o2
n100
o46
v15
C115
o2
o2
n-0.5
v149
o0
o2
n100
o46
v15
o2
n100
o46
v16
C116
o2
o2
n-0.5
v149
o0
o2
n100
o46
v16
o2
n100
o46
v17
C117
o2
o2
n-0.5
v149
o0
o2
n100
o46
v17
o2
n100
o46
v18
C118
o2
o2
n-0.5
v149
o0
o2
n100
o46
v18
o2
n100
o46
v19
C119
o2
o2
n-0.5
v149
o0
o2
n100
o46
v19
o2
n100
o46
v20
C120
o2
o2
n-0.5
v149
o0
o2
n100
o46
v20
o2
n100
o46
v21
C121
o2
o2
n-0.5
v149
o0
o2
n100
o46
v21
o2
n100
o46
v22
C122
o2
o2
n-0.5
v149
o0
o2
n100
o46
v22
o2
n100
o46
v23
C123
o2
o2
n-0.5
v149
o0
o2
n100
o46
v23
o2
n100
o46
v24
C124
o2
o2
n-0.5
v149
o0
o2
n100
o46
v24
o2
n100
o46
v25
C125
o2
o2
n-0.5
v149
o0
o2
n100
o46
v25
o2
n100
o46
v26
C126
o2
o2
n-0.5
v149
o0
o2
n100
o46
v26
o2
n100
o46
v27
C127
o2
o2
n-0.5
v149
o0
o2
n100
o46
v27
o2
n100
o46
v28
C128
o2
o2
n-0.5
v149
o0
o2
n100
o46
v28
o2
n100
o46
v29
C129
o2
o2
n-0.5
v149
o0
o2
n100
o46
v29
o2
n100
o46
v30
C130
o2
o2
n-0.5
v149
o0
o2
n100
o46
v30
o2
n100
o46
v31
C131
o2
o2
n-0.5
v149
o0
o2
n100
o46
v31
o2
n100
o46
v32
C132
o2
o2
n-0.5
v149
o0
o2
n100
o46
v32
o2
n100
o46
v33
C133
o2
o2
n-0.5
v149
o0
o2
n100
o46
v33
o2
n100
o46
v34
C134
o2
o2
n-0.5
v149
o0
o2
n100
o46
v34
o2
n100
o46
v35
C135
o2
o2
n-0.5
v149
o0
o2
n100
o46
v35
o2
n100
o46
v36
C136
o2
o2
n-0.5
v149
o0
o2
n100
o46
v36
o2
n100
o46
v37
C137
o2
o2
n-0.5
v149
o0
o2
n100
o46
v37
o2
n100
o46
v38
C138
o2
o2
n-0.5
v149
o0
o2
n100
o46
v38
o2
n100
o46
v39
C139
o2
o2
n-0.5
v149
o0
o2
n100
o46
v39
o2
n100
o46
v40
C140
o2
o2
n-0.5
v149
o0
o2
n100
o46
v40
o2
n100
o46
v41
C141
o2
o2
n-0.5
v149
o0
o2
n100
o46
v41
o2
n100
o46
v42
C142
o2
o2
n-0.5
v149
o0
o2
n100
o46
v42
o2
n100
o46
v43
C143
o2
o2
n-0.5
v149
o0
o2
n100
o46
v43
o2
n100
o46
v44
C144
o2
o2
n-0.5
v149
o0
o2
n100
o46
v44
o2
n100
o46
v45
C145
o2
o2
n-0.5
v149
o0
o2
n100
o46
v45
o2
n100
o46
v46
C146
o2
o2
n-0.5
v149
o0
o2
n100
o46
v46
o2
n100
o46
v47
C147
o2
o2
n-0.5
v149
o0
o2
n100
o46
v47
o2
n100
o46
v48
C148
o2
o2
n-0.5
v149
o0
o2
n100
o46
v48
o2
n100
o46
v49
C149
o2
o2
n-0.5
v149
o0
o2
n100
o46
v49
o2
n100
o46
v50
C150
o2
o2
n-0.5
v149
o0
o2
n100
o41
v0
o2
n100
o41
v1
C151
o2
o2
n-0.5
v149
o0
o2
n100
o41
v1
o2
n100
o41
v2
C152
o2
o2
n-0.5
v149
o0
o2
n100
o41
v2
o2
n100
o41
v3
C153
o2
o2
n-0.5
v149
o0
o2
n100
o41
v3
o2
n100
o41
v4
C154
o2
o2
n-0.5
v149
o0
o2
n100
o41
v4
o2
n100
o41
v5
C155
o2
o2
n-0.5
v149
o0
o2
n100
o41
v5
o2
n100
o41
v6
C156
o2
o2
n-0.5
v149
o0
o2
n100
o41
v6
o2
n100
o41
v7
C157
o2
o2
n-0.5
v149
o0
o2
n100
o41
v7
o2
n100
o41
v8
C158
o2
o2
n-0.5
v149
o0
o2
n100
o41
v8
o2
n100
o41
v9
C159
o2
o2
n-0.5
v149
o0
o2
n100
o41
v9
o2
n100
o41
v10
C160
o2
o2
n-0.5
v149
o0
o2
n100
o41
v10
o2
n100
o41
v11
C161
o2
o2
n-0.5
v149
o0
o2
n100
o41
v11
o2
n100
o41
v12
C162
o2
o2
n-0.5
v149
o0
o2
n100
o41
v12
o2
n100
o41
v13
C163
o2
o2
n-0.5
v149
o0
o2
n100
o41
v13
o2
n100
o41
v14
C164
o2
o2
n-0.5
v149
o0
o2
n100
o41
v14
o2
n100
o41
v15
C165
o2
o2
n-0.5
v149
o0
o2
n100
o41
v15
o2
n100
o41
v16
C166
o2
o2
n-0.5
v149
o0
o2
n100
o41
v16
o2
n100
o41
v17
C167
o2
o2
n-0.5
v149
o0
o2
n100
o41
v17
o2
n100
o41
v18
C168
o2
o2
n-0.5
v149
o0
o2
n100
o41
v18
o2
n100
o41
v19
C169
o2
o2
n-0.5
v149
o0
o2
n100
o41
v19
o2
n100
o41
v20
C170
o2
o2
n-0.5
v149
o0
o2
n100
o41
v20
o2
n100
o41
v21
C171
o2
o2
n-0.5
v149
o0
o2
n100
o41
v21
o2
n100
o41
v22
C172
o2
o2
n-0.5
v149
o0
o2
n100
o41
v22
o2
n100
o41
v23
C173
o2
o2
n-0.5
v149
o0
o2
n100
o41
v23
o2
n100
o41
v24
C174
o2
o2
n-0.5
v149
o0
o2
n100
o41
v24
o2
n100
o41
v25
C175
o2
o2
n-0.5
v149
o0
o2
n100
o41
v25
o2
n100
o41
v26
C176
o2
o2
n-0.5
v149
o0
o2
n100
o41
v26
o2
n100
o41
v27
C177
o2
o2
n-0.5
v149
o0
o2
n100
o41
v27
o2
n100
o41
v28
C178
o2
o2
n-0.5
v149
o0
o2
n100
o41
v28
o2
n100
o41
v29
C179
o2
o2
n-0.5
v149
o0
o2
n100
o41
v29
o2
n100
o41
v30
C180
o2
o2
n-0.5
v149
o0
o2
n100
o41
v30
o2
n100
o41
v31
C181
o2
o2
n-0.5
v149
o0
o2
n100
o41
v31
o2
n100
o41
v32
C182
o2
o2
n-0.5
v149
o0
o2
n100
o41
v32
o2
n100
o41
v33
C183
o2
o2
n-0.5
v149
o0
o2
n100
o41
v33
o2
n100
o41
v34
C184
o2
o2
n-0.5
v149
o0
o2
n100
o41
v34
o2
n100
o41
v35
C185
o2
o2
n-0.5
v149
o0
o2
n100
o41
v35
o2
n100
o41
v36
C186
o2
o2
n-0.5
v149
o0
o2
n100
o41
v36
o2
n100
o41
v37
C187
o2
o2
n-0.5
v149
o0
o2
n100
o41
v37
o2
n100
o41
v38
C188
o2
o2
n-0.5
v149
o0
o2
n100
o41
v38
o2
n100
o41
v39
C189
o2
o2
n-0.5
v149
o0
o2
n100
o41
v39
o2
n100
o41
v40
C190
o2
o2
n-0.5
v149
o0
o2
n100
o41
v40
o2
n100
o41
v41
C191
o2
o2
n-0.5
v149
o0
o2
n100
o41
v41
o2
n100
o41
v42
C192
o2
o2
n-0.5
v149
o0
o2
n100
o41
v42
o2
n100
o41
v43
C193
o2
o2
n-0.5
v149
o0
o2
n100
o41
v43
o2
n100
o41
v44
C194
o2
o2
n-0.5
v149
o0
o2
n100
o41
v44
o2
n100
o41
v45
C195
o2
o2
n-0.5
v149
o0
o2
n100
o41
v45
o2
n100
o41
v46
C196
o2
o2
n-0.5
v149
o0
o2
n100
o41
v46
o2
n100
o41
v47
C197
o2
o2
n-0.5
v149
o0
o2
n100
o41
v47
o2
n100
o41
v48
C198
o2
o2
n-0.5
v149
o0
o2
n100
o41
v48
o2
n100
o41
v49
C199
o2
o2
n-0.5
v149
o0
o2
n100
o41
v49
o2
n100
o41
v50
O0 0
n0
k248
2
6
10
14
18
22
26
30
34
38
42
46
50
54
58
62
66
70
74
78
82
86
90
94
98
102
106
110
114
118
122
126
130
134
138
142
146
150
154
158
162
166
170
174
178
182
186
190
194
198
200
204
208
212
216
220
224
228
232
236
240
244
248
252
256
260
264
268
272
276
280
284
288
292
296
300
304
308
312
316
320
324
328
332
336
340
344
348
352
356
360
364
368
372
376
380
384
388
392
396
400
404
408
412
416
420
424
428
432
436
440
444
448
452
456
460
464
468
472
476
480
484
488
492
496
500
504
508
512
516
520
524
528
532
536
540
544
548
552
556
560
564
568
572
576
580
584
588
592
792
794
796
798
800
802
804
806
808
810
812
814
816
818
820
822
824
826
828
830
832
834
836
838
840
842
844
846
848
850
852
854
856
858
860
862
864
866
868
870
872
874
876
878
880
882
884
886
888
890
891
893
895
897
899
901
903
905
907
909
911
913
915
917
919
921
923
925
927
929
931
933
935
937
939
941
943
945
947
949
951
953
955
957
959
961
963
965
967
969
971
973
975
977
979
981
983
985
987
J0 3
51 0
149 0
150 1
J1 5
51 0
52 0
149 0
150 -1
151 1
J2 5
52 0
53 0
149 0
151 -1
152 1
J3 5
53 0
54 0
149 0
152 -1
153 1
J4 5
54 0
55 0
149 0
153 -1
154 1
J5 5
55 0
56 0
149 0
154 -1
155 1
J6 5
56 0
57 0
149 0
155 -1
156 1
J7 5
57 0
58 0
149 0
156 -1
157 1
J8 5
58 0
59 0
149 0
157 -1
158 1
J9 5
59 0
60 0
149 0
158 -1
159 1
J10 5
60 0
61 0
149 0
159 -1
160 1
J11 5
61 0
62 0
149 0
160 -1
161 1
J12 5
62 0
63 0
149 0
161 -1
162 1
J13 5
63 0
64 0
149 0
162 -1
163 1
J14 5
64 0
65 0
149 0
163 -1
164 1
J15 5
65 0
66 0
149 0
164 -1
165 1
J16 5
66 0
67 0
149 0
165 -1
166 1
J17 5
67 0
68 0
149 0
166 -1
167 1
J18 5
68 0
69 0
149 0
167 -1
168 1
J19 5
69 0
70 0
149 0
168 -1
169 1
J20 5
70 0
71 0
149 0
169 -1
170 1
J21 5
71 0
72 0
149 0
170 -1
171 1
J22 5
72 0
73 0
149 0
171 -1
172 1
J23 5
73 0
74 0
149 0
172 -1
173 1
J24 5
74 0
75 0
149 0
173 -1
174 1
J25 5
75 0
76 0
149 0
174 -1
175 1
J26 5
76 0
77 0
149 0
175 -1
176 1
J27 5
77 0
78 0
149 0
176 -1
177 1
J28 5
78 0
79 0
149 0
177 -1
178 1
J29 5
79 0
80 0
149 0
178 -1
179 1
J30 5
80 0
81 0
149 0
179 -1
180 1
J31 5
81 0
82 0
149 0
180 -1
181 1
J32 5
82 0
83 0
149 0
181 -1
182 1
J33 5
83 0
84 0
149 0
182 -1
183 1
J34 5
84 0
85 0
149 0
183 -1
184 1
J35 5
85 0
86 0
149 0
184 -1
185 1
J36 5
86 0
87 0
149 0
185 -1
186 1
J37 5
87 0
88 0
149 0
186 -1
187 1
J38 5
88 0
89 0
149 0
187 -1
188 1
J39 5
89 0
90 0
149 0
188 -1
189 1
J40 5
90 0
91 0
149 0
189 -1
190 1
J41 5
91 0
92 0
149 0
190 -1
191 1
J42 5
92 0
93 0
149 0
191 -1
192 1
J43 5
93 0
94 0
149 0
192 -1
193 1
J44 5
94 0
95 0
149 0
193 -1
194 1
J45 5
95 0
96 0
149 0
194 -1
195 1
J46 5
96 0
97 0
149 0
195 -1
196 1
J47 5
97 0
98 0
149 0
196 -1
197 1
J48 5
98 0
99 0
149 0
197 -1
198 1
J49 4
99 0
149 0
198 -1
199 1
J50 3
100 0
149 0
200 1
J51 5
100 0
101 0
149 0
200 -1
201 1
J52 5
101 0
102 0
149 0
201 -1
202 1
J53 5
102 0
103 0
149 0
202 -1
203 1
J54 5
103 0
104 0
149 0
203 -1
204 1
J55 5
104 0
105 0
149 0
204 -1
205 1
J56 5
105 0
106 0
149 0
205 -1
206 1
J57 5
106 0
107 0
149 0
206 -1
207 1
J58 5
107 0
108 0
149 0
207 -1
208 1
J59 5
108 0
109 0
149 0
208 -1
209 1
J60 5
109 0
110 0
149 0
209 -1
210 1
J61 5
110 0
111 0
149 0
210 -1
211 1
J62 5
111 0
112 0
149 0
211 -1
212 1
J63 5
112 0
113 0
149 0
212 -1
213 1
J64 5
113 0
114 0
149 0
213 -1
214 1
J65 5
114 0
115 0
149 0
214 -1
215 1
J66 5
115 0
116 0
149 0
215 -1
216 1
J67 5
116 0
117 0
149 0
216 -1
217 1
J68 5
117 0
118 0
149 0
217 -1
218 1
J69 5
118 0
119 0
149 0
218 -1
219 1
J70 5
119 0
120 0
149 0
219 -1
220 1
J71 5
120 0
121 0
149 0
220 -1
221 1
J72 5
121 0
122 0
149 0
221 -1
222 1
J73 5
122 0
123 0
149 0
222 -1
223 1
J74 5
123 0
124 0
149 0
223 -1
224 1
J75 5
124 0
125 0
149 0
224 -1
225 1
J76 5
125 0
126 0
149 0
225 -1
226 1
J77 5
126 0
127 0
149 0
226 -1
227 1
J78 5
127 0
128 0
149 0
227 -1
228 1
J79 5
128 0
129 0
149 0
228 -1
229 1
J80 5
129 0
130 0
149 0
229 -1
230 1
J81 5
130 0
131 0
149 0
230 -1
231 1
J82 5
131 0
132 0
149 0
231 -1
232 1
J83 5
132 0
133 0
149 0
232 -1
233 1
J84 5
133 0
134 0
149 0
233 -1
234 1
J85 5
134 0
135 0
149 0
234 -1
235 1
J86 5
135 0
136 0
149 0
235 -1
236 1
J87 5
136 0
137 0
149 0
236 -1
237 1
J88 5
137 0
138 0
149 0
237 -1
238 1
J89 5
138 0
139 0
149 0
238 -1
239 1
J90 5
139 0
140 0
149 0
239 -1
240 1
J91 5
140 0
141 0
149 0
240 -1
241 1
J92 5
141 0
142 0
149 0
241 -1
242 1
J93 5
142 0
143 0
149 0
242 -1
243 1
J94 5
143 0
144 0
149 0
243 -1
244 1
J95 5
144 0
145 0
149 0
244 -1
245 1
J96 5
145 0
146 0
149 0
245 -1
246 1
J97 5
146 0
147 0
149 0
246 -1
247 1
J98 5
147 0
148 0
149 0
247 -1
248 1
J99 3
148 0
149 0
248 -1
J100 4
0 0
1 0
51 1
149 0
J101 5
1 0
2 0
51 -1
52 1
149 0
J102 5
2 0
3 0
52 -1
53 1
149 0
J103 5
3 0
4 0
53 -1
54 1
149 0
J104 5
4 0
5 0
54 -1
55 1
149 0
J105 5
5 0
6 0
55 -1
56 1
149 0
J106 5
6 0
7 0
56 -1
57 1
149 0
J107 5
7 0
8 0
57 -1
58 1
149 0
J108 5
8 0
9 0
58 -1
59 1
149 0
J109 5
9 0
10 0
59 -1
60 1
149 0
J110 5
10 0
11 0
60 -1
61 1
149 0
J111 5
11 0
12 0
61 -1
62 1
149 0
J112 5
12 0
13 0
62 -1
63 1
149 0
J113 5
13 0
14 0
63 -1
64 1
149 0
J114 5
14 0
15 0
64 -1
65 1
149 0
J115 5
15 0
16 0
65 -1
66 1
149 0
J116 5
16 0
17 0
66 -1
67 1
149 0
J117 5
17 0
18 0
67 -1
68 1
149 0
J118 5
18 0
19 0
68 -1
69 1
149 0
J119 5
19 0
20 0
69 -1
70 1
149 0
J120 5
20 0
21 0
70 -1
71 1
149 0
J121 5
21 0
22 0
71 -1
72 1
149 0
J122 5
22 0
23 0
72 -1
73 1
149 0
J123 5
23 0
24 0
73 -1
74 1
149 0
J124 5
24 0
25 0
74 -1
75 1
149 0
J125 5
25 0
26 0
75 -1
76 1
149 0
J126 5
26 0
27 0
76 -1
77 1
149 0
J127 5
27 0
28 0
77 -1
78 1
149 0
J128 5
28 0
29 0
78 -1
79 1
149 0
J129 5
29 0
30 0
79 -1
80 1
149 0
J130 5
30 0
31 0
80 -1
81 1
149 0
J131 5
31 0
32 0
81 -1
82 1
149 0
J132 5
32 0
33 0
82 -1
83 1
149 0
J133 5
33 0
34 0
83 -1
84 1
149 0
J134 5
34 0
35 0
84 -1
85 1
149 0
J135 5
35 0
36 0
85 -1
86 1
149 0
J136 5
36 0
37 0
86 -1
87 1
149 0
J137 5
37 0
38 0
87 -1
88 1
149 0
J138 5
38 0
39 0
88 -1
89 1
149 0
J139 5
39 0
40 0
89 -1
90 1
149 0
J140 5
40 0
41 0
90 -1
91 1
149 0
J141 5
41 0
42 0
91 -1
92 1
149 0
J142 5
42 0
43 0
92 -1
93 1
149 0
J143 5
43 0
44 0
93 -1
94 1
149 0
J144 5
44 0
45 0
94 -1
95 1
149 0
J145 5
45 0
46 0
95 -1
96 1
149 0
J146 5
46 0
47 0
96 -1
97 1
149 0
J147 5
47 0
48 0
97 -1
98 1
149 0
J148 5
48 0
49 0
98 -1
99 1
149 0
J149 4
49 0
50 0
99 -1
149 0
J150 4
0 0
1 0
100 1
149 0
J151 5
1 0
2 0
100 -1
101 1
149 0
J152 5
2 0
3 0
101 -1
102 1
149 0
J153 5
3 0
4 0
102 -1
103 1
149 0
J154 5
4 0
5 0
103 -1
104 1
149 0
J155 5
5 0
6 0
104 -1
105 1
149 0
J156 5
6 0
7 0
105 -1
106 1
149 0
J157 5
7 0
8 0
106 -1
107 1
149 0
J158 5
8 0
9 0
107 -1
108 1
149 0
J159 5
9 0
10 0
108 -1
109 1
149 0
J160 5
10 0
11 0
109 -1
110 1
149 0
J161 5
11 0
12 0
110 -1
111 1
149 0
J162 5
12 0
13 0
111 -1
112 1
149 0
J163 5
13 0
14 0
112 -1
113 1
149 0
J164 5
14 0
15 0
113 -1
114 1
149 0
J165 5
15 0
16 0
114 -1
115 1
149 0
J166 5
16 0
17 0
115 -1
116 1
149 0
J167 5
17 0
18 0
116 -1
117 1
149 0
J168 5
18 0
19 0
117 -1
118 1
149 0
J169 5
19 0
20 0
118 -1
119 1
149 0
J170 5
20 0
21 0
119 -1
120 1
149 0
J171 5
21 0
22 0
120 -1
121 1
149 0
J172 5
22 0
23 0
121 -1
122 1
149 0
J173 5
23 0
24 0
122 -1
123 1
149 0
J174 5
24 0
25 0
123 -1
124 1
149 0
J175 5
25 0
26 0
124 -1
125 1
149 0
J176 5
26 0
27 0
125 -1
126 1
149 0
J177 5
27 0
28 0
126 -1
127 1
149 0
J178 5
28 0
29 0
127 -1
128 1
149 0
J179 5
29 0
30 0
128 -1
129 1
149 0
J180 5
30 0
31 0
129 -1
130 1
149 0
J181 5
31 0
32 0
130 -1
131 1
149 0
J182 5
32 0
33 0
131 -1
132 1
149 0
J183 5
33 0
34 0
132 -1
133 1
149 0
J184 5
34 0
35 0
133 -1
134 1
149 0
J185 5
35 0
36 0
134 -1
135 1
149 0
J186 5
36 0
37 0
135 -1
136 1
149 0
J187 5
37 0
38 0
136 -1
137 1
149 0
J188 5
38 0
39 0
137 -1
138 1
149 0
J189 5
39 0
40 0
138 -1
139 1
149 0
J190 5
40 0
41 0
139 -1
140 1
149 0
J191 5
41 0
42 0
140 -1
141 1
149 0
J192 5
42 0
43 0
141 -1
142 1
149 0
J193 5
43 0
44 0
142 -1
143 1
149 0
J194 5
44 0
45 0
143 -1
144 1
149 0
J195 5
45 0
46 0
144 -1
145 1
149 0
J196 5
46 0
47 0
145 -1
146 1
149 0
J197 5
47 0
48 0
146 -1
147 1
149 0
J198 5
48 0
49 0
147 -1
148 1
149 0
J199 4
49 0
50 0
148 -1
149 0
G0 1
149 50
